# Solution for model Refinery_Optimization
# Objective value = 2.1136513476893297e+05
cr[1] 15000
cr[2] 30000
end_prod[Premium_fuel] 6.8177788531333172e+03
end_prod[Regular_fuel] 1.7044447132833291e+04
end_prod[Jet_fuel] 15156
end_prod[Fuel_oil] 0
end_prod[Lube_oil] 500
dist_prod[Light_naphtha] 6000
dist_prod[Medium_naphtha] 10500
dist_prod[Heavy_naphtha] 8400
dist_prod[Light_oil] 4200
dist_prod[Heavy_oil] 8700
dist_prod[Residuum] 5550
napthas_to_reformed_gasoline[Light_naphtha] 0
napthas_to_reformed_gasoline[Medium_naphtha] 0
napthas_to_reformed_gasoline[Heavy_naphtha] 5.4068618436970701e+03
reformed_gasoline 2.4330878296636815e+03
intermediate_oils_to_cracked_gasoline[Light_oil] 4200
intermediate_oils_to_cracked_gasoline[Heavy_oil] 3800
cracking_prods[Cracked_gasoline] 1936
cracking_prods[Cracked_oil] 5706
motor_fuel_to_regular_motor_fuel[Light_naphtha] 6000
motor_fuel_to_regular_motor_fuel[Medium_naphtha] 10500
motor_fuel_to_regular_motor_fuel[Heavy_naphtha] 2.4173024706293370e+02
motor_fuel_to_regular_motor_fuel[Reformed_gasoline] 3.0271688577035741e+02
motor_fuel_to_regular_motor_fuel[Cracked_gasoline] 0
motot_fuel_to_premium_motor_fuel[Light_naphtha] 0
motot_fuel_to_premium_motor_fuel[Medium_naphtha] 0
motot_fuel_to_premium_motor_fuel[Heavy_naphtha] 2.7514079092399961e+03
motot_fuel_to_premium_motor_fuel[Reformed_gasoline] 2.1303709438933220e+03
motot_fuel_to_premium_motor_fuel[Cracked_gasoline] 1936
jet_fuel[Light_oil] 0
jet_fuel[Heavy_oil] 4900
jet_fuel[Residuum] 4550
jet_fuel[Cracked_oil] 5706
residuum_used_for_lube_oil 1000
